7 
6 
14 
6 
6 
15 
8 
11 
10 
9 
10 
7 
9 
6 
10 
9 
5 
8 
10 
7 
9 
8 
5 
11 
10 
12 
9 
5 
5 
12 
6 
9 
6 
11 
12 
1 
8 
15 
10 
7 
6 
6 
6 
8 
10 
3 
6 
7 
8 
8 
9 
6 
13 
10 
9 
7 
6 
8 
7 
6 
9 
6 
12 
7 
9 
7 
7 
8 
5 
8 
11 
8 
13 
10 
9 
7 
11 
10 
10 
8 
7 
7 
9 
6 
10 
7 
3 
10 
12 
16 
5 
9 
9 
14 
12 
5 
5 
12 
13 
9 
